instances/knapsack/discrete/knapsack_20_2.kp
53547
20
96

82 8.2 47
51 5.1 75
5 0.5 45
90 9.0 61
11 1.1 2
64 6.4 10
96 9.6 94
2 0.2 100
32 3.2 39
53 5.3 47
2 0.2 100
18 1.8 52
31 3.1 76
51 5.1 43
27 2.7 76
19 1.9 53
64 6.4 63
23 2.3 7
4 0.4 75
37 3.7 50

68160
100

[4.41 4.54 1.14 1.66 2.4 0.52 3.22 3.41 3.61 4.16 0.89 1.85 3.58 4.05 1.62 0.15 1.35 4.74 2.0 4.97]

[23 43 5 90 11 41 72 47 100 49 87 90 11 87 4 12 100 83 68 37]
