instances/knapsack/discrete/knapsack_20_2.mps
* Signature: 0x21fa7211c45a3dc6
NAME knapsack_20_2
ROWS
 N  OBJ
 L  primal_upper
 L  primal_lower
 L  mccormick1[0]
 L  mccormick1[1]
 L  mccormick1[2]
 L  mccormick1[3]
 L  mccormick1[4]
 L  mccormick1[5]
 L  mccormick1[6]
 L  mccormick1[7]
 L  mccormick1[8]
 L  mccormick1[9]
 L  mccormick1[10]
 L  mccormick1[11]
 L  mccormick1[12]
 L  mccormick1[13]
 L  mccormick1[14]
 L  mccormick1[15]
 L  mccormick1[16]
 L  mccormick1[17]
 L  mccormick1[18]
 L  mccormick1[19]
 L  mccormick2[0]
 L  mccormick2[1]
 L  mccormick2[2]
 L  mccormick2[3]
 L  mccormick2[4]
 L  mccormick2[5]
 L  mccormick2[6]
 L  mccormick2[7]
 L  mccormick2[8]
 L  mccormick2[9]
 L  mccormick2[10]
 L  mccormick2[11]
 L  mccormick2[12]
 L  mccormick2[13]
 L  mccormick2[14]
 L  mccormick2[15]
 L  mccormick2[16]
 L  mccormick2[17]
 L  mccormick2[18]
 L  mccormick2[19]
 L  mccormick3[0]
 L  mccormick3[1]
 L  mccormick3[2]
 L  mccormick3[3]
 L  mccormick3[4]
 L  mccormick3[5]
 L  mccormick3[6]
 L  mccormick3[7]
 L  mccormick3[8]
 L  mccormick3[9]
 L  mccormick3[10]
 L  mccormick3[11]
 L  mccormick3[12]
 L  mccormick3[13]
 L  mccormick3[14]
 L  mccormick3[15]
 L  mccormick3[16]
 L  mccormick3[17]
 L  mccormick3[18]
 L  mccormick3[19]
COLUMNS
    MARKER    'MARKER'                 'INTORG'
    x[0]      OBJ       -47
    x[0]      primal_upper  82
    x[0]      primal_lower  4.41
    x[0]      mccormick1[0]  -1
    x[0]      mccormick2[0]  -1
    x[0]      mccormick3[0]  1
    x[1]      OBJ       -75
    x[1]      primal_upper  51
    x[1]      primal_lower  4.54
    x[1]      mccormick1[1]  -1
    x[1]      mccormick2[1]  -1
    x[1]      mccormick3[1]  1
    x[2]      OBJ       -45
    x[2]      primal_upper  5
    x[2]      primal_lower  1.14
    x[2]      mccormick1[2]  -1
    x[2]      mccormick2[2]  -1
    x[2]      mccormick3[2]  1
    x[3]      OBJ       -61
    x[3]      primal_upper  90
    x[3]      primal_lower  1.66
    x[3]      mccormick1[3]  -1
    x[3]      mccormick2[3]  -1
    x[3]      mccormick3[3]  1
    x[4]      OBJ       -2
    x[4]      primal_upper  11
    x[4]      primal_lower  2.4
    x[4]      mccormick1[4]  -1
    x[4]      mccormick2[4]  -1
    x[4]      mccormick3[4]  1
    x[5]      OBJ       -10
    x[5]      primal_upper  64
    x[5]      primal_lower  0.52
    x[5]      mccormick1[5]  -1
    x[5]      mccormick2[5]  -1
    x[5]      mccormick3[5]  1
    x[6]      OBJ       -94
    x[6]      primal_upper  96
    x[6]      primal_lower  3.22
    x[6]      mccormick1[6]  -1
    x[6]      mccormick2[6]  -1
    x[6]      mccormick3[6]  1
    x[7]      OBJ       -100
    x[7]      primal_upper  2
    x[7]      primal_lower  3.41
    x[7]      mccormick1[7]  -1
    x[7]      mccormick2[7]  -1
    x[7]      mccormick3[7]  1
    x[8]      OBJ       -39
    x[8]      primal_upper  32
    x[8]      primal_lower  3.61
    x[8]      mccormick1[8]  -1
    x[8]      mccormick2[8]  -1
    x[8]      mccormick3[8]  1
    x[9]      OBJ       -47
    x[9]      primal_upper  53
    x[9]      primal_lower  4.16
    x[9]      mccormick1[9]  -1
    x[9]      mccormick2[9]  -1
    x[9]      mccormick3[9]  1
    x[10]     OBJ       -100
    x[10]     primal_upper  2
    x[10]     primal_lower  0.89
    x[10]     mccormick1[10]  -1
    x[10]     mccormick2[10]  -1
    x[10]     mccormick3[10]  1
    x[11]     OBJ       -52
    x[11]     primal_upper  18
    x[11]     primal_lower  1.85
    x[11]     mccormick1[11]  -1
    x[11]     mccormick2[11]  -1
    x[11]     mccormick3[11]  1
    x[12]     OBJ       -76
    x[12]     primal_upper  31
    x[12]     primal_lower  3.58
    x[12]     mccormick1[12]  -1
    x[12]     mccormick2[12]  -1
    x[12]     mccormick3[12]  1
    x[13]     OBJ       -43
    x[13]     primal_upper  51
    x[13]     primal_lower  4.05
    x[13]     mccormick1[13]  -1
    x[13]     mccormick2[13]  -1
    x[13]     mccormick3[13]  1
    x[14]     OBJ       -76
    x[14]     primal_upper  27
    x[14]     primal_lower  1.62
    x[14]     mccormick1[14]  -1
    x[14]     mccormick2[14]  -1
    x[14]     mccormick3[14]  1
    x[15]     OBJ       -53
    x[15]     primal_upper  19
    x[15]     primal_lower  0.15
    x[15]     mccormick1[15]  -1
    x[15]     mccormick2[15]  -1
    x[15]     mccormick3[15]  1
    x[16]     OBJ       -63
    x[16]     primal_upper  64
    x[16]     primal_lower  1.35
    x[16]     mccormick1[16]  -1
    x[16]     mccormick2[16]  -1
    x[16]     mccormick3[16]  1
    x[17]     OBJ       -7
    x[17]     primal_upper  23
    x[17]     primal_lower  4.74
    x[17]     mccormick1[17]  -1
    x[17]     mccormick2[17]  -1
    x[17]     mccormick3[17]  1
    x[18]     OBJ       -75
    x[18]     primal_upper  4
    x[18]     primal_lower  2
    x[18]     mccormick1[18]  -1
    x[18]     mccormick2[18]  -1
    x[18]     mccormick3[18]  1
    x[19]     OBJ       -50
    x[19]     primal_upper  37
    x[19]     primal_lower  4.97
    x[19]     mccormick1[19]  -1
    x[19]     mccormick2[19]  -1
    x[19]     mccormick3[19]  1
    u[0]      primal_lower  23
    u[0]      mccormick1[0]  1
    u[0]      mccormick3[0]  1
    u[1]      primal_lower  43
    u[1]      mccormick1[1]  1
    u[1]      mccormick3[1]  1
    u[2]      primal_lower  5
    u[2]      mccormick1[2]  1
    u[2]      mccormick3[2]  1
    u[3]      primal_lower  90
    u[3]      mccormick1[3]  1
    u[3]      mccormick3[3]  1
    u[4]      primal_lower  11
    u[4]      mccormick1[4]  1
    u[4]      mccormick3[4]  1
    u[5]      primal_lower  41
    u[5]      mccormick1[5]  1
    u[5]      mccormick3[5]  1
    u[6]      primal_lower  72
    u[6]      mccormick1[6]  1
    u[6]      mccormick3[6]  1
    u[7]      primal_lower  47
    u[7]      mccormick1[7]  1
    u[7]      mccormick3[7]  1
    u[8]      primal_lower  100
    u[8]      mccormick1[8]  1
    u[8]      mccormick3[8]  1
    u[9]      primal_lower  49
    u[9]      mccormick1[9]  1
    u[9]      mccormick3[9]  1
    u[10]     primal_lower  87
    u[10]     mccormick1[10]  1
    u[10]     mccormick3[10]  1
    u[11]     primal_lower  90
    u[11]     mccormick1[11]  1
    u[11]     mccormick3[11]  1
    u[12]     primal_lower  11
    u[12]     mccormick1[12]  1
    u[12]     mccormick3[12]  1
    u[13]     primal_lower  87
    u[13]     mccormick1[13]  1
    u[13]     mccormick3[13]  1
    u[14]     primal_lower  4
    u[14]     mccormick1[14]  1
    u[14]     mccormick3[14]  1
    u[15]     primal_lower  12
    u[15]     mccormick1[15]  1
    u[15]     mccormick3[15]  1
    u[16]     primal_lower  100
    u[16]     mccormick1[16]  1
    u[16]     mccormick3[16]  1
    u[17]     primal_lower  83
    u[17]     mccormick1[17]  1
    u[17]     mccormick3[17]  1
    u[18]     primal_lower  68
    u[18]     mccormick1[18]  1
    u[18]     mccormick3[18]  1
    u[19]     primal_lower  37
    u[19]     mccormick1[19]  1
    u[19]     mccormick3[19]  1
    r[0]      primal_upper  8.2
    r[0]      mccormick2[0]  1
    r[0]      mccormick3[0]  -1
    r[1]      primal_upper  5.1
    r[1]      mccormick2[1]  1
    r[1]      mccormick3[1]  -1
    r[2]      primal_upper  0.5
    r[2]      mccormick2[2]  1
    r[2]      mccormick3[2]  -1
    r[3]      primal_upper  9
    r[3]      mccormick2[3]  1
    r[3]      mccormick3[3]  -1
    r[4]      primal_upper  1.1
    r[4]      mccormick2[4]  1
    r[4]      mccormick3[4]  -1
    r[5]      primal_upper  6.4
    r[5]      mccormick2[5]  1
    r[5]      mccormick3[5]  -1
    r[6]      primal_upper  9.6
    r[6]      mccormick2[6]  1
    r[6]      mccormick3[6]  -1
    r[7]      primal_upper  0.2
    r[7]      mccormick2[7]  1
    r[7]      mccormick3[7]  -1
    r[8]      primal_upper  3.2
    r[8]      mccormick2[8]  1
    r[8]      mccormick3[8]  -1
    r[9]      primal_upper  5.3
    r[9]      mccormick2[9]  1
    r[9]      mccormick3[9]  -1
    r[10]     primal_upper  0.2
    r[10]     mccormick2[10]  1
    r[10]     mccormick3[10]  -1
    r[11]     primal_upper  1.8
    r[11]     mccormick2[11]  1
    r[11]     mccormick3[11]  -1
    r[12]     primal_upper  3.1
    r[12]     mccormick2[12]  1
    r[12]     mccormick3[12]  -1
    r[13]     primal_upper  5.1
    r[13]     mccormick2[13]  1
    r[13]     mccormick3[13]  -1
    r[14]     primal_upper  2.7
    r[14]     mccormick2[14]  1
    r[14]     mccormick3[14]  -1
    r[15]     primal_upper  1.9
    r[15]     mccormick2[15]  1
    r[15]     mccormick3[15]  -1
    r[16]     primal_upper  6.4
    r[16]     mccormick2[16]  1
    r[16]     mccormick3[16]  -1
    r[17]     primal_upper  2.3
    r[17]     mccormick2[17]  1
    r[17]     mccormick3[17]  -1
    r[18]     primal_upper  0.4
    r[18]     mccormick2[18]  1
    r[18]     mccormick3[18]  -1
    r[19]     primal_upper  3.7
    r[19]     mccormick2[19]  1
    r[19]     mccormick3[19]  -1
    MARKER    'MARKER'                 'INTEND'
RHS
    RHS1      primal_upper  96
    RHS1      primal_lower  100
    RHS1      mccormick3[0]  1
    RHS1      mccormick3[1]  1
    RHS1      mccormick3[2]  1
    RHS1      mccormick3[3]  1
    RHS1      mccormick3[4]  1
    RHS1      mccormick3[5]  1
    RHS1      mccormick3[6]  1
    RHS1      mccormick3[7]  1
    RHS1      mccormick3[8]  1
    RHS1      mccormick3[9]  1
    RHS1      mccormick3[10]  1
    RHS1      mccormick3[11]  1
    RHS1      mccormick3[12]  1
    RHS1      mccormick3[13]  1
    RHS1      mccormick3[14]  1
    RHS1      mccormick3[15]  1
    RHS1      mccormick3[16]  1
    RHS1      mccormick3[17]  1
    RHS1      mccormick3[18]  1
    RHS1      mccormick3[19]  1
BOUNDS
 BV BND1      x[0]    
 BV BND1      x[1]    
 BV BND1      x[2]    
 BV BND1      x[3]    
 BV BND1      x[4]    
 BV BND1      x[5]    
 BV BND1      x[6]    
 BV BND1      x[7]    
 BV BND1      x[8]    
 BV BND1      x[9]    
 BV BND1      x[10]   
 BV BND1      x[11]   
 BV BND1      x[12]   
 BV BND1      x[13]   
 BV BND1      x[14]   
 BV BND1      x[15]   
 BV BND1      x[16]   
 BV BND1      x[17]   
 BV BND1      x[18]   
 BV BND1      x[19]   
 BV BND1      u[0]    
 BV BND1      u[1]    
 BV BND1      u[2]    
 BV BND1      u[3]    
 BV BND1      u[4]    
 BV BND1      u[5]    
 BV BND1      u[6]    
 BV BND1      u[7]    
 BV BND1      u[8]    
 BV BND1      u[9]    
 BV BND1      u[10]   
 BV BND1      u[11]   
 BV BND1      u[12]   
 BV BND1      u[13]   
 BV BND1      u[14]   
 BV BND1      u[15]   
 BV BND1      u[16]   
 BV BND1      u[17]   
 BV BND1      u[18]   
 BV BND1      u[19]   
 BV BND1      r[0]    
 BV BND1      r[1]    
 BV BND1      r[2]    
 BV BND1      r[3]    
 BV BND1      r[4]    
 BV BND1      r[5]    
 BV BND1      r[6]    
 BV BND1      r[7]    
 BV BND1      r[8]    
 BV BND1      r[9]    
 BV BND1      r[10]   
 BV BND1      r[11]   
 BV BND1      r[12]   
 BV BND1      r[13]   
 BV BND1      r[14]   
 BV BND1      r[15]   
 BV BND1      r[16]   
 BV BND1      r[17]   
 BV BND1      r[18]   
 BV BND1      r[19]   
ENDATA
